
******************************************************************************
This program contains Ipopt, a library for large-scale nonlinear optimization.
 Ipopt is released as open source code under the Eclipse Public License (EPL).
         For more information visit http://projects.coin-or.org/Ipopt
******************************************************************************

This is Ipopt version 3.12.6, running with linear solver ma57.

Number of nonzeros in equality constraint Jacobian...:        0
Number of nonzeros in inequality constraint Jacobian.:        0
Number of nonzeros in Lagrangian Hessian.............:       21

Total number of variables............................:        6
                     variables with only lower bounds:        2
                variables with lower and upper bounds:        0
                     variables with only upper bounds:        0
Total number of equality constraints.................:        0
Total number of inequality constraints...............:        0
        inequality constraints with only lower bounds:        0
   inequality constraints with lower and upper bounds:        0
        inequality constraints with only upper bounds:        0

iter    objective    inf_pr   inf_du lg(mu)  ||d||  lg(rg) alpha_du alpha_pr  ls
   0  3.6296562e+03 0.00e+00 1.00e+02  -1.0 0.00e+00    -  0.00e+00 0.00e+00   0
   1  1.8607173e+03 0.00e+00 4.74e+01  -1.0 4.74e-01   2.0 1.00e+00 1.00e+00f  1
   2  1.3448947e+03 0.00e+00 1.13e+01  -1.0 3.40e-01   1.5 1.00e+00 1.00e+00f  1
   3  1.1602068e+03 0.00e+00 1.52e+01  -1.0 5.55e+00   1.0 6.04e-01 7.57e-02f  2
   4  1.0637991e+03 0.00e+00 2.30e+01  -1.0 8.93e-02   2.4 1.00e+00 1.00e+00f  1
   5  1.0057988e+03 0.00e+00 2.88e+01  -1.0 4.43e-02   2.8 1.00e+00 1.00e+00f  1
   6  6.9673207e+02 0.00e+00 7.00e+01  -1.0 4.77e-01   2.3 1.00e+00 3.06e-01f  2
   7  4.2368921e+02 0.00e+00 6.25e+01  -1.0 6.80e-01   2.7 1.00e+00 1.08e-01f  2
   8  2.4675974e+02 0.00e+00 5.26e+00  -1.0 1.18e+03    -  2.00e-02 2.21e-02f  4
   9  2.4004348e+02 0.00e+00 3.66e+00  -1.0 1.96e-02   2.3 1.00e+00 1.00e+00f  1
iter    objective    inf_pr   inf_du lg(mu)  ||d||  lg(rg) alpha_du alpha_pr  ls
  10  2.2873009e+02 0.00e+00 1.93e+00  -1.0 3.09e-02   1.8 1.00e+00 1.00e+00f  1
  11  2.0237200e+02 0.00e+00 1.86e+00  -1.0 8.92e-02   1.3 1.00e+00 1.00e+00f  1
  12  1.4415532e+02 0.00e+00 1.57e+00  -1.0 2.27e-01   0.8 1.00e+00 1.00e+00f  1
  13  7.3200307e+01 0.00e+00 1.75e+01  -1.0 5.61e+00    -  3.65e-01 1.00e+00f  1
  14  5.2906481e+01 0.00e+00 4.90e+01  -1.0 5.16e-01   1.3 1.00e+00 3.55e-01f  2
  15  1.1042523e+01 0.00e+00 1.41e+01  -1.0 3.72e-02   0.8 1.00e+00 1.00e+00f  1
  16  3.7292397e+00 0.00e+00 3.12e+00  -1.0 6.57e-02   0.3 1.00e+00 1.00e+00f  1
  17  1.9358631e+00 0.00e+00 6.65e-01  -1.0 1.87e-01  -0.2 1.00e+00 1.00e+00f  1
  18  4.8198107e-01 0.00e+00 1.53e+00  -1.7 3.01e+00    -  1.00e+00 1.00e+00f  1
  19  2.1239232e-01 0.00e+00 1.47e-01  -1.7 6.35e-02  -0.6 1.00e+00 1.00e+00f  1
iter    objective    inf_pr   inf_du lg(mu)  ||d||  lg(rg) alpha_du alpha_pr  ls
  20  2.4038766e-01 0.00e+00 9.18e-01  -2.5 1.12e+00    -  8.95e-01 1.00e+00f  1
  21  1.1764082e-01 0.00e+00 2.60e-02  -2.5 2.83e-01    -  1.00e+00 1.00e+00f  1
  22  1.0906172e-01 0.00e+00 2.42e-01  -3.8 1.60e+00    -  8.49e-01 5.00e-01f  2
  23  9.4984596e-02 0.00e+00 4.52e-02  -3.8 4.42e-01    -  1.00e+00 1.00e+00f  1
  24  8.8735122e-02 0.00e+00 1.91e-01  -3.8 1.32e+00    -  1.00e+00 5.00e-01f  2
  25  7.8854245e-02 0.00e+00 6.26e-02  -3.8 4.07e-01    -  1.00e+00 1.00e+00f  1
  26  7.3686150e-02 0.00e+00 1.25e-01  -3.8 1.02e+00    -  1.00e+00 5.00e-01f  2
  27  6.6772775e-02 0.00e+00 1.11e-01  -3.8 5.67e-01    -  1.00e+00 1.00e+00f  1
  28  6.0883967e-02 0.00e+00 1.22e-01  -3.8 6.03e-01    -  1.00e+00 1.00e+00f  1
  29  5.5328412e-02 0.00e+00 9.20e-02  -3.8 5.32e-01    -  1.00e+00 1.00e+00f  1
iter    objective    inf_pr   inf_du lg(mu)  ||d||  lg(rg) alpha_du alpha_pr  ls
  30  5.1065433e-02 0.00e+00 1.35e-01  -3.8 6.52e-01    -  1.00e+00 1.00e+00f  1
  31  4.6327847e-02 0.00e+00 5.99e-02  -3.8 4.42e-01    -  1.00e+00 1.00e+00f  1
  32  4.5400148e-02 0.00e+00 2.24e-01  -3.8 8.60e-01    -  1.00e+00 1.00e+00f  1
  33  3.9121586e-02 0.00e+00 1.64e-02  -3.8 2.48e-01    -  1.00e+00 1.00e+00f  1
  34  3.7161445e-02 0.00e+00 8.20e-02  -3.8 1.95e+00    -  1.00e+00 2.50e-01f  3
  35  3.4618880e-02 0.00e+00 9.66e-02  -3.8 5.79e-01    -  1.00e+00 1.00e+00f  1
  36  3.2083299e-02 0.00e+00 6.36e-02  -3.8 4.79e-01    -  1.00e+00 1.00e+00f  1
  37  3.0478127e-02 0.00e+00 1.20e-01  -3.8 6.62e-01    -  1.00e+00 1.00e+00f  1
  38  2.8107250e-02 0.00e+00 3.28e-02  -3.8 3.63e-01    -  1.00e+00 1.00e+00f  1
  39  2.7067697e-02 0.00e+00 8.83e-02  -3.8 1.07e+00    -  1.00e+00 5.00e-01f  2
iter    objective    inf_pr   inf_du lg(mu)  ||d||  lg(rg) alpha_du alpha_pr  ls
  40  2.5402263e-02 0.00e+00 4.74e-02  -3.8 4.48e-01    -  1.00e+00 1.00e+00f  1
  41  2.4812748e-02 0.00e+00 1.28e-01  -3.8 7.45e-01    -  1.00e+00 1.00e+00f  1
  42  2.2925323e-02 0.00e+00 1.73e-02  -3.8 2.90e-01    -  1.00e+00 1.00e+00f  1
  43  2.2855494e-02 0.00e+00 1.30e-01  -3.8 1.50e+00    -  1.00e+00 5.00e-01f  2
  44  2.1160262e-02 0.00e+00 1.30e-02  -3.8 2.62e-01    -  1.00e+00 1.00e+00f  1
  45  2.0697749e-02 0.00e+00 4.58e-02  -3.8 1.69e+00    -  1.00e+00 2.50e-01f  3
  46  2.0182526e-02 0.00e+00 7.58e-02  -3.8 6.25e-01    -  1.00e+00 1.00e+00f  1
  47  1.9400019e-02 0.00e+00 2.57e-02  -3.8 3.75e-01    -  1.00e+00 1.00e+00f  1
  48  1.9102325e-02 0.00e+00 5.13e-02  -3.8 9.16e-01    -  1.00e+00 5.00e-01f  2
  49  1.8634584e-02 0.00e+00 4.16e-02  -3.8 4.86e-01    -  1.00e+00 1.00e+00f  1
iter    objective    inf_pr   inf_du lg(mu)  ||d||  lg(rg) alpha_du alpha_pr  ls
  50  1.8319058e-02 0.00e+00 5.22e-02  -3.8 5.51e-01    -  1.00e+00 1.00e+00f  1
  51  1.7944690e-02 0.00e+00 2.93e-02  -3.8 4.21e-01    -  1.00e+00 1.00e+00f  1
  52  1.7914185e-02 0.00e+00 7.05e-02  -3.8 6.57e-01    -  1.00e+00 1.00e+00f  1
  53  1.7486832e-02 0.00e+00 1.14e-02  -3.8 2.74e-01    -  1.00e+00 1.00e+00f  1
  54  1.7545069e-02 0.00e+00 6.08e-02  -3.8 1.19e+00    -  1.00e+00 5.00e-01f  2
  55  1.7250921e-02 0.00e+00 1.07e-02  -3.8 2.70e-01    -  1.00e+00 1.00e+00f  1
  56  1.7311479e-02 0.00e+00 4.89e-02  -3.8 1.08e+00    -  1.00e+00 5.00e-01f  2
  57  1.7139412e-02 0.00e+00 1.11e-02  -3.8 2.80e-01    -  1.00e+00 1.00e+00f  1
  58  1.7184568e-02 0.00e+00 3.42e-02  -3.8 8.93e-01    -  1.00e+00 5.00e-01f  2
  59  1.7125667e-02 0.00e+00 1.46e-02  -3.8 3.24e-01    -  1.00e+00 1.00e+00f  1
iter    objective    inf_pr   inf_du lg(mu)  ||d||  lg(rg) alpha_du alpha_pr  ls
  60  1.7307091e-02 0.00e+00 5.08e-02  -3.8 6.06e-01    -  1.00e+00 1.00e+00f  1
  61  1.7168731e-02 0.00e+00 3.82e-03  -3.8 1.72e-01    -  1.00e+00 1.00e+00f  1
  62  1.7368893e-02 0.00e+00 4.45e-02  -3.8 1.13e+00    -  1.00e+00 5.00e-01f  2
  63  1.7276990e-02 0.00e+00 2.61e-03  -3.8 1.45e-01    -  1.00e+00 1.00e+00f  1
  64  1.7456059e-02 0.00e+00 3.47e-02  -3.8 1.01e+00    -  1.00e+00 5.00e-01f  2
  65  1.7416064e-02 0.00e+00 1.94e-03  -3.8 1.26e-01    -  1.00e+00 1.00e+00f  1
  66  1.7547320e-02 0.00e+00 2.09e-02  -3.8 7.94e-01    -  1.00e+00 5.00e-01f  2
  67  1.7558821e-02 0.00e+00 1.97e-03  -3.8 1.27e-01    -  1.00e+00 1.00e+00f  1
  68  1.7638312e-02 0.00e+00 8.58e-03  -3.8 4.95e-01    -  1.00e+00 5.00e-01f  2
  69  1.7684984e-02 0.00e+00 3.01e-03  -3.8 1.57e-01    -  1.00e+00 1.00e+00f  1
iter    objective    inf_pr   inf_du lg(mu)  ||d||  lg(rg) alpha_du alpha_pr  ls
  70  1.7758543e-02 0.00e+00 5.64e-03  -3.8 2.15e-01    -  1.00e+00 1.00e+00f  1
  71  1.7782672e-02 0.00e+00 6.71e-04  -3.8 7.49e-02    -  1.00e+00 1.00e+00f  1
  72  1.7671777e-02 0.00e+00 2.01e-02  -5.7 3.20e+00    -  1.00e+00 1.25e-01f  4
  73  1.7552831e-02 0.00e+00 2.93e-02  -5.7 4.87e-01    -  1.00e+00 1.00e+00f  1
  74  1.7432286e-02 0.00e+00 1.09e-02  -5.7 2.92e-01    -  1.00e+00 1.00e+00f  1
  75  1.7418569e-02 0.00e+00 4.68e-02  -5.7 6.07e-01    -  1.00e+00 1.00e+00f  1
  76  1.7265747e-02 0.00e+00 2.08e-03  -5.7 1.23e-01    -  1.00e+00 1.00e+00f  1
  77  1.7226585e-02 0.00e+00 1.14e-02  -5.7 1.10e+00    -  1.00e+00 2.50e-01f  3
  78  1.7185625e-02 0.00e+00 1.42e-02  -5.7 3.27e-01    -  1.00e+00 1.00e+00f  1
  79  1.7152966e-02 0.00e+00 5.69e-03  -5.7 2.05e-01    -  1.00e+00 1.00e+00f  1
iter    objective    inf_pr   inf_du lg(mu)  ||d||  lg(rg) alpha_du alpha_pr  ls
  80  1.7136539e-02 0.00e+00 1.33e-02  -5.7 3.13e-01    -  1.00e+00 1.00e+00f  1
  81  1.7120177e-02 0.00e+00 1.45e-03  -5.7 1.02e-01    -  1.00e+00 1.00e+00f  1
  82  1.7117003e-02 0.00e+00 9.91e-03  -5.7 2.68e-01    -  1.00e+00 1.00e+00f  1
  83  1.7110512e-02 0.00e+00 1.01e-04  -5.7 2.62e-02    -  1.00e+00 1.00e+00f  1
  84  1.7109857e-02 0.00e+00 6.83e-04  -5.7 7.00e-02    -  1.00e+00 1.00e+00f  1
  85  1.7109821e-02 0.00e+00 2.43e-07  -5.7 1.27e-03    -  1.00e+00 1.00e+00f  1
  86  1.7109720e-02 0.00e+00 2.30e-04  -8.6 4.05e-02    -  1.00e+00 1.00e+00f  1
  87  1.7109717e-02 0.00e+00 1.44e-10  -8.6 4.84e-05    -  1.00e+00 1.00e+00f  1

Number of Iterations....: 87

                                   (scaled)                 (unscaled)
Objective...............:   3.8271678781946522e-04    1.7109716501254833e-02
Dual infeasibility......:   1.4420836354025237e-10    6.4469714833818949e-09
Constraint violation....:   0.0000000000000000e+00    0.0000000000000000e+00
Complementarity.........:   2.5059030282739845e-09    1.1202876842086409e-07
Overall NLP error.......:   2.5059030282739845e-09    1.1202876842086409e-07


Number of objective function evaluations             = 205
Number of objective gradient evaluations             = 88
Number of equality constraint evaluations            = 0
Number of inequality constraint evaluations          = 0
Number of equality constraint Jacobian evaluations   = 0
Number of inequality constraint Jacobian evaluations = 0
Number of Lagrangian Hessian evaluations             = 87
Total CPU secs in IPOPT (w/o function evaluations)   =      0.037
Total CPU secs in NLP function evaluations           =      0.007

EXIT: Optimal Solution Found.
Note: The following floating-point exceptions are signalling: IEEE_INVALID_FLAG IEEE_DIVIDE_BY_ZERO

 ** SUBROUTINE CUTEST_csetup: Warning. The problem has no general constraints. 
 ** Other tools may be preferable ** 

************************ CUTEst statistics ************************


 Package used            :  IPOPT
 Problem                 :  PALMER2A  
 # variables             =               6
 # constraints           =               0
 # objective functions   =        0.2940000E+03
 # objective gradients   =        0.8900000E+02
 # objective Hessians    =        0.8800000E+02
 # Hessian-vector prdct  =        0.0000000E+00
 # constraints functions =        0.0000000E+00
 # constraints gradients =        0.0000000E+00
 # constraints Hessians  =        0.0000000E+00
 Exit code               =               0
 Final f                 =   0.1710972E-01
 Set up time             =            0.00 seconds
 Solve time              =            0.11 seconds


******************************************************************

System Time =       0.0280000009 s.
